solution status: gap limit reached
objective value:                          34203.69325
y#1                                                 1 	(obj:5700)
y#2                                                 1 	(obj:5700)
y#3                                                 1 	(obj:5700)
y#15                                                1 	(obj:5700)
y#17                                                1 	(obj:5700)
y#20                                                1 	(obj:5700)
x#1#1                                               1 	(obj:0.04624)
x#2#1                                               1 	(obj:0.08109)
x#3#2                                               1 	(obj:0.15453)
x#4#15                                              1 	(obj:0.00561)
x#5#2                                               1 	(obj:0.0289)
x#6#20                                              1 	(obj:0.02584)
x#7#2                                               1 	(obj:0.03145)
x#8#2                                               1 	(obj:0.08755)
x#9#1                                               1 	(obj:0.03961)
x#10#2                                              1 	(obj:0.03808)
x#11#15                                             1 	(obj:0.017)
x#12#17                                             1 	(obj:0.14008)
x#13#15                                             1 	(obj:0.06936)
x#14#17                                             1 	(obj:0.08874)
x#15#15                                             1 	(obj:0.03009)
x#16#1                                              1 	(obj:0.04199)
x#17#20                                             1 	(obj:0.02839)
x#18#1                                              1 	(obj:0.02618)
x#19#15                                             1 	(obj:0.02261)
x#20#15                                             1 	(obj:0.00901)
x#21#3                                              1 	(obj:0.06817)
x#22#20                                             1 	(obj:0.01819)
x#23#20                                             1 	(obj:0.11713)
x#24#20                                             1 	(obj:0.03213)
x#25#20                                             1 	(obj:0.01802)
x#26#1                                              1 	(obj:0.08347)
x#27#3                                              1 	(obj:0.03315)
x#28#1                                              1 	(obj:0.07344)
x#29#2                                              1 	(obj:0.0476)
x#30#17                                             1 	(obj:0.1258)
x#31#17                                             1 	(obj:0.0442)
x#32#1                                              1 	(obj:0.04624)
x#33#15                                             1 	(obj:0.0153)
x#34#17                                             1 	(obj:0.04471)
x#35#20                                             1 	(obj:0.03315)
x#36#3                                              1 	(obj:0.13277)
x#37#3                                              1 	(obj:0.01989)
x#38#2                                              1 	(obj:0.12869)
x#39#3                                              1 	(obj:0.01326)
x#40#3                                              1 	(obj:0.04182)
x#41#15                                             1 	(obj:0.01139)
x#42#20                                             1 	(obj:0.02584)
x#43#15                                             1 	(obj:0.01394)
x#44#1                                              1 	(obj:0.09401)
x#45#17                                             1 	(obj:0.01785)
x#46#20                                             1 	(obj:0.01887)
x#47#17                                             1 	(obj:0.03468)
x#48#3                                              1 	(obj:0.01649)
x#49#17                                             1 	(obj:0.01989)
x#50#17                                             1 	(obj:0.03247)
x#51#17                                             1 	(obj:0.08483)
x#52#17                                             1 	(obj:0.11866)
x#53#2                                              1 	(obj:0.14994)
x#54#3                                              1 	(obj:0.08568)
x#55#2                                              1 	(obj:0.01938)
x#56#20                                             1 	(obj:0.15742)
x#57#2                                              1 	(obj:0.0425)
x#58#3                                              1 	(obj:0.04556)
x#59#3                                              1 	(obj:0.04743)
x#60#15                                             1 	(obj:0.04505)
x#61#2                                              1 	(obj:0.03791)
x#62#1                                              1 	(obj:0.07123)
x#63#15                                             1 	(obj:0.02329)
x#64#15                                             1 	(obj:0.01377)
x#65#1                                              1 	(obj:0.0119)
x#66#3                                              1 	(obj:0.03927)
x#67#15                                             1 	(obj:0.00629)
x#68#20                                             1 	(obj:0.01139)
x#69#17                                             1 	(obj:0.09435)
x#70#2                                              1 	(obj:0.15249)
